Minimize
  - 20 x(1) - 80 x(2) - 20 x(3) - 50 x(4) - 60 x(5) - 90 x(6) + 10 x(8)
   + 10 x(9) + 10 x(10) + [ - 10 x(1) ^2 - 10 x(2) ^2 - 10 x(3) ^2
   - 10 x(4) ^2 - 10 x(5) ^2 - 10 x(6) ^2 - 10 x(7) ^2 ] / 2 
Subject To
 con1: - x(1) - x(2) - x(3) - x(4) - x(5) - x(6) - x(8) - x(9) - x(10)
   - x(7) <= -1
 con2: x(1) + x(2) + x(3) + x(4) + x(5) + x(6) + x(8) + x(9) + x(10) + x(7)
   <= 9
 con3: - 4 x(1) + 6 x(2) + 7 x(3) + 2 x(4) + 2 x(5) + 6 x(8) - 7 x(9)
   + 4 x(10) + 6 x(7) <= 15
 con4: x(1) - 2 x(2) + 6 x(3) + 9 x(4) - 7 x(6) - 9 x(8) - 6 x(9) + 4 x(10)
   + 9 x(7) <= 12
 con5: x(1) - 3 x(2) - 3 x(3) - 4 x(4) - x(5) + x(8) + 6 x(9) - 4 x(7)
   <= 1
 con6: - 7 x(1) - 5 x(2) - 2 x(3) - 6 x(5) - 6 x(6) - 6 x(8) + 7 x(9)
   + 7 x(10) - 7 x(7) <= -3
 con7: - 8 x(1) + 7 x(2) - 4 x(3) - 5 x(4) - 9 x(5) + x(6) - x(8) + 3 x(9)
   - 2 x(10) - 7 x(7) <= -12
 con8: 9 x(1) + 5 x(2) - 9 x(4) + x(5) - 8 x(6) - 9 x(8) - 9 x(9) - 3 x(10)
   + 3 x(7) <= -23
 con9: - 5 x(1) + 6 x(2) + 5 x(3) + 3 x(4) + 8 x(5) - 8 x(6) + 2 x(8)
   - 9 x(10) + 9 x(7) <= -6
 con10: 6 x(1) - 5 x(2) + 8 x(3) - 3 x(4) + x(6) + 8 x(8) + 9 x(9)
   - 3 x(10) + 3 x(7) <= 22
 con11: - 2 x(1) - 6 x(2) - x(3) - 3 x(5) - 3 x(6) - 6 x(8) - 2 x(9)
   - 2 x(10) - 2 x(7) <= -4
Bounds
 x(1) <= 1
 x(2) <= 1
 x(3) <= 1
 x(4) <= 1
 x(5) <= 1
 x(6) <= 1
 x(8) <= 1
 x(9) <= 1
 x(10) <= 1
 x(7) <= 1
End
